15	3	2
1504	1504	1504	
91	36	39	
493	999	1679	
969	497	840	
410	978	1907	
300	471	725	
938	203	357	
319	683	1345	
953	180	336	
246	483	893	
524	218	373	
951	88	140	
891	401	760	
189	591	974	
517	65	66	
601	125	186	
